10J3M/DAT/10J3MUTX-12.dat
10 3
18.6197 4.3151
13.818 3.7173
30.0988 5.4862
5.8433 2.4173
34.9605 5.9127
30.3169 5.5061
11.7726 3.4311
24.281 4.9276
2.349 1.5326
2.1791 1.4762
9.6806