10J3M/SOL/10J3MUTX-12.sol
solution status: optimal solution found
objective value:                     92.0033967742758
x#1#1                                               1 	(obj:0)
x#3#1                               0.419292222627685 	(obj:0)
x#3#3                               0.580707777372315 	(obj:0)
x#4#2                               0.186081538991146 	(obj:0)
x#4#3                               0.813918461008854 	(obj:0)
x#7#3                               0.485235618115055 	(obj:0)
x#8#1                                  0.735412305585 	(obj:0)
x#8#2                                  0.264587694415 	(obj:0)
x#9#2                                               1 	(obj:0)
x#10#2                              0.703176600379454 	(obj:0)
x#10#3                              0.296823399620546 	(obj:0)
z                                    92.0033967742758 	(obj:1)
